data/processed_heuristic-threshold/instances/1/8/ds_918_courier_487/pairwise.tsp
NAME: ds_918_courier_487
TYPE: TSP
COMMENT: nil
DIMENSION: 9
EDGE_WEIGHT_TYPE: EXPLICIT
EDGE_WEIGHT_FORMAT: FULL_MATRIX
EDGE_WEIGHT_SECTION
9999 3759 3818 2653 2970 4432 3375 4208 3603 
3759 9999 262 1966 1875 6156 5037 6219 157 
3818 262 9999 2181 2110 6376 5249 6428 338 
2653 1966 2181 9999 318 4196 3072 4253 1845 
2970 1875 2110 318 9999 4294 3200 4383 1773 
4432 6156 6376 4196 4294 9999 1170 463 6040 
3375 5037 5249 3072 3200 1170 9999 1183 4916 
4208 6219 6428 4253 4383 463 1183 9999 6095 
3603 157 338 1845 1773 6040 4916 6095 9999 
