data/processed_heuristic-threshold/instances/1/8/ds_918_courier_487/pairwise.sol
9
0 7 5 6 3 4 8 1 2 
